11
-1 21 15 18 22 28 17 19 31 25 20
27 -1 34 26 15 17 29 10 32 18 24
14 25 -1 30 28 24 19 16 35 21 31
23 18 11 -1 17 27 33 28 20 25 30
19 30 16 22 -1 21 15 24 33 14 29
25 19 27 15 32 -1 26 13 18 22 17
21 28 20 14 27 30 -1 15 24 19 16
22 15 32 23 18 16 27 -1 31 21 25
16 24 29 21 20 33 14 19 -1 30 28
20 22 17 28 31 19 24 15 21 -1 27
26 16 22 25 18 28 30 17 29 15 -1
